data/solutions/recovery/degenerate/moderate/flexible/degenerate_moderate_instance36/23.sol
Elapsed time: 70.75
Upper bound: 1410106238.0
Planning weighted value: 51577342461.0
C[0]=1410106238.0
C[1]=1410050041.0
C[2]=1410024463.0
C[3]=1409822272.0
C[4]=0.0
y[0]=0
y[1]=3
y[2]=0
y[3]=1
y[4]=3
y[5]=1
y[6]=1
y[7]=0
y[8]=2
y[9]=2
y[10]=3
y[11]=1
y[12]=1
y[13]=3
y[14]=2
y[15]=0
y[16]=2
y[17]=2
y[18]=3
y[19]=3
y[20]=2
y[21]=0
y[22]=1
y[23]=2
y[24]=1
y[25]=3
y[26]=0
y[27]=2
y[28]=1
y[29]=2
y[30]=2
y[31]=2
y[32]=1
y[33]=3
y[34]=0
y[35]=0
y[36]=1
y[37]=2
y[38]=3
y[39]=2
y[40]=2
y[41]=0
y[42]=3
y[43]=1
y[44]=1
y[45]=3
