data/solutions/recovery/degenerate/moderate/flexible/degenerate_moderate_instance36/23.log

Log started (V12.6.3.0) Sat Apr 21 11:21:21 2018

New value for default parallel thread count: 1

Problem '/tmp/tmp0Abng3.pyomo.lp' read.
Read time = 0.00 sec. (0.11 ticks)

Problem name         : /tmp/tmp0Abng3.pyomo.lp
Objective sense      : Minimize
Variables            :     237  [Nneg: 1,  Binary: 230,  General Integer: 6]
Objective nonzeros   :       1
Linear constraints   :     104  [Less: 51,  Equal: 53]
  Nonzeros           :    7146
  RHS nonzeros       :      93

Variables            : Min LB: 0.000000         Max UB: 1.000000       
Objective nonzeros   : Min   : 1.000000         Max   : 1.000000       
Linear constraints   :
  Nonzeros           : Min   : 1.000000         Max   : 2.657465e+08   
  RHS nonzeros       : Min   : 1.000000         Max   : 5.000000       
Tried aggregator 1 time.
MIP Presolve eliminated 49 rows and 48 columns.
Reduced MIP has 55 rows, 189 columns, and 488 nonzeros.
Reduced MIP has 184 binaries, 5 generals, 0 SOSs, and 0 indicators.
Presolve time = 0.00 sec. (1.33 ticks)
Found incumbent of value 4.1111619e+09 after 0.00 sec. (1.56 ticks)
Probing time = 0.00 sec. (0.37 ticks)
Tried aggregator 1 time.
Reduced MIP has 55 rows, 189 columns, and 488 nonzeros.
Reduced MIP has 184 binaries, 5 generals, 0 SOSs, and 0 indicators.
Presolve time = 0.00 sec. (0.31 ticks)
Probing time = 0.00 sec. (0.37 ticks)
Clique table members: 46.
MIP emphasis: balance optimality and feasibility.
MIP search method: dynamic search.
Parallel mode: none, using 1 thread.
Root relaxation solution time = 0.00 sec. (0.66 ticks)

        Nodes                                         Cuts/
   Node  Left     Objective  IInf  Best Integer    Best Bound    ItCnt     Gap

*     0+    0                       4.11116e+09        0.0000           100.00%
      0     0   1.41000e+09    13   4.11116e+09   1.41000e+09      107   65.70%
*     0+    0                       1.46952e+09   1.41000e+09             4.05%
*     0+    0                       1.44928e+09   1.41000e+09             2.71%
      0     2   1.41000e+09    13   1.44928e+09   1.41000e+09      107    2.71%
Elapsed time = 0.01 sec. (6.33 ticks, tree = 0.01 MB, solutions = 3)
*    19    12      integral     0   1.41216e+09   1.41000e+09      165    0.15%
*    90+   29                       1.41183e+09   1.41000e+09             0.13%
*   380+   99                       1.41127e+09   1.41000e+09             0.09%
*  2645+   59                       1.41125e+09   1.41000e+09             0.09%
*  2645+   47                       1.41088e+09   1.41000e+09             0.06%
*  2645+   39                       1.41066e+09   1.41000e+09             0.05%
   2645    40   1.41000e+09     6   1.41066e+09   1.41000e+09     8991    0.05%
   2646    40   1.41000e+09     6   1.41066e+09   1.41000e+09     8992    0.05%
   2647    40   1.41000e+09     6   1.41066e+09   1.41000e+09     8993    0.05%
   2648    38    infeasible         1.41066e+09   1.41000e+09     8993    0.05%
   2649    37   1.41000e+09     5   1.41066e+09   1.41000e+09     8994    0.05%
   2650    38   1.41000e+09     5   1.41066e+09   1.41000e+09     8995    0.05%
   2651    36        cutoff         1.41066e+09   1.41000e+09     8997    0.05%
   2652    34    infeasible         1.41066e+09   1.41000e+09     8997    0.05%
   2653    34   1.41000e+09     6   1.41066e+09   1.41000e+09     8999    0.05%
*  3645+  313                       1.41062e+09   1.41000e+09             0.04%
   5665   595   1.41000e+09     6   1.41062e+09   1.41000e+09    16592    0.04%
Elapsed time = 1.10 sec. (960.08 ticks, tree = 0.21 MB, solutions = 10)
  12205  1337   1.41000e+09     5   1.41062e+09   1.41000e+09    35753    0.04%
  12206  1336        cutoff         1.41062e+09   1.41000e+09    35755    0.04%
  12207  1337   1.41000e+09     6   1.41062e+09   1.41000e+09    35757    0.04%
  12208  1338   1.41000e+09     6   1.41062e+09   1.41000e+09    35759    0.04%
  12209  1339   1.41000e+09     6   1.41062e+09   1.41000e+09    35760    0.04%
  12210  1340   1.41000e+09     8   1.41062e+09   1.41000e+09    35765    0.04%
  12211  1341   1.41000e+09     8   1.41062e+09   1.41000e+09    35768    0.04%
  12212  1342   1.41000e+09     6   1.41062e+09   1.41000e+09    35769    0.04%
  12213  1341        cutoff         1.41062e+09   1.41000e+09    35775    0.04%
  12214  1340        cutoff         1.41062e+09   1.41000e+09    35779    0.04%
Elapsed time = 2.41 sec. (2032.49 ticks, tree = 0.47 MB, solutions = 10)
  20573  1968        cutoff         1.41062e+09   1.41000e+09    61755    0.04%
  20574  1969   1.41000e+09    10   1.41062e+09   1.41000e+09    61756    0.04%
  20575  1970   1.41000e+09     8   1.41062e+09   1.41000e+09    61758    0.04%
  20576  1971   1.41000e+09     8   1.41062e+09   1.41000e+09    61759    0.04%
  20577  1972   1.41000e+09     8   1.41062e+09   1.41000e+09    61760    0.04%
  20578  1973   1.41000e+09     8   1.41062e+09   1.41000e+09    61761    0.04%
  20579  1974   1.41000e+09     8   1.41062e+09   1.41000e+09    61762    0.04%
  20580  1975   1.41000e+09     8   1.41062e+09   1.41000e+09    61763    0.04%
  20581  1976   1.41000e+09     8   1.41062e+09   1.41000e+09    61764    0.04%
  20582  1977   1.41000e+09     8   1.41062e+09   1.41000e+09    61765    0.04%
Elapsed time = 3.51 sec. (2986.58 ticks, tree = 0.71 MB, solutions = 10)
  30009  2350        cutoff         1.41062e+09   1.41000e+09    93103    0.04%
  30010  2349    infeasible         1.41062e+09   1.41000e+09    93103    0.04%
  30011  2348    infeasible         1.41062e+09   1.41000e+09    93103    0.04%
  30012  2347        cutoff         1.41062e+09   1.41000e+09    93106    0.04%
  30013  2346        cutoff         1.41062e+09   1.41000e+09    93115    0.04%
  30014  2345        cutoff         1.41062e+09   1.41000e+09    93119    0.04%
  30015  2344        cutoff         1.41062e+09   1.41000e+09    93121    0.04%
  30016  2343        cutoff         1.41062e+09   1.41000e+09    93125    0.04%
  30017  2342        cutoff         1.41062e+09   1.41000e+09    93132    0.04%
  30018  2341        cutoff         1.41062e+09   1.41000e+09    93142    0.04%
Elapsed time = 4.62 sec. (3941.77 ticks, tree = 0.82 MB, solutions = 10)
  38825  3194        cutoff         1.41062e+09   1.41000e+09   119031    0.04%
  38826  3193        cutoff         1.41062e+09   1.41000e+09   119036    0.04%
  38827  3192        cutoff         1.41062e+09   1.41000e+09   119041    0.04%
  38828  3191    infeasible         1.41062e+09   1.41000e+09   119041    0.04%
  38829  3190    infeasible         1.41062e+09   1.41000e+09   119041    0.04%
  38830  3189    infeasible         1.41062e+09   1.41000e+09   119041    0.04%
  38831  3188    infeasible         1.41062e+09   1.41000e+09   119041    0.04%
  38832  3187        cutoff         1.41062e+09   1.41000e+09   119047    0.04%
  38833  3188   1.41000e+09     8   1.41062e+09   1.41000e+09   119050    0.04%
  38834  3189   1.41000e+09     6   1.41062e+09   1.41000e+09   119053    0.04%
Elapsed time = 5.74 sec. (4896.21 ticks, tree = 1.07 MB, solutions = 10)
  47253  3482   1.41000e+09     8   1.41062e+09   1.41000e+09   144709    0.04%
  47254  3483   1.41000e+09     6   1.41062e+09   1.41000e+09   144710    0.04%
  47255  3484   1.41000e+09     6   1.41062e+09   1.41000e+09   144712    0.04%
  47256  3485   1.41000e+09     6   1.41062e+09   1.41000e+09   144713    0.04%
  47257  3486   1.41000e+09     6   1.41062e+09   1.41000e+09   144714    0.04%
  47258  3487   1.41000e+09     6   1.41062e+09   1.41000e+09   144716    0.04%
  47259  3488   1.41000e+09     6   1.41062e+09   1.41000e+09   144721    0.04%
  47260  3489   1.41000e+09     6   1.41062e+09   1.41000e+09   144724    0.04%
  47261  3490   1.41000e+09     6   1.41062e+09   1.41000e+09   144725    0.04%
  47262  3489        cutoff         1.41062e+09   1.41000e+09   144731    0.04%
Elapsed time = 6.85 sec. (5850.60 ticks, tree = 1.16 MB, solutions = 10)
* 53224  3256      integral     0   1.41033e+09   1.41000e+09   164510    0.02%
  55685  3300    infeasible         1.41033e+09   1.41000e+09   172640    0.02%
  55686  3299    infeasible         1.41033e+09   1.41000e+09   172640    0.02%
  55687  3300   1.41000e+09     8   1.41033e+09   1.41000e+09   172643    0.02%
  55688  3301   1.41000e+09     6   1.41033e+09   1.41000e+09   172646    0.02%
  55689  3302   1.41000e+09    10   1.41033e+09   1.41000e+09   172650    0.02%
  55690  3303   1.41000e+09     8   1.41033e+09   1.41000e+09   172651    0.02%
  55691  3304   1.41000e+09     8   1.41033e+09   1.41000e+09   172652    0.02%
  55692  3305   1.41000e+09     8   1.41033e+09   1.41000e+09   172653    0.02%
  55693  3306   1.41000e+09     7   1.41033e+09   1.41000e+09   172656    0.02%
  55694  3307   1.41000e+09    10   1.41033e+09   1.41000e+09   172658    0.02%
Elapsed time = 7.98 sec. (6805.34 ticks, tree = 1.10 MB, solutions = 11)
  64788  3618        cutoff         1.41033e+09   1.41000e+09   201272    0.02%
  64789  3617        cutoff         1.41033e+09   1.41000e+09   201283    0.02%
  64790  3616        cutoff         1.41033e+09   1.41000e+09   201286    0.02%
  64791  3615        cutoff         1.41033e+09   1.41000e+09   201288    0.02%
  64792  3616   1.41000e+09     6   1.41033e+09   1.41000e+09   201290    0.02%
  64793  3617   1.41000e+09     6   1.41033e+09   1.41000e+09   201291    0.02%
  64794  3618   1.41000e+09     6   1.41033e+09   1.41000e+09   201292    0.02%
  64795  3619   1.41000e+09     6   1.41033e+09   1.41000e+09   201294    0.02%
  64796  3620   1.41000e+09     8   1.41033e+09   1.41000e+09   201303    0.02%
  64797  3619        cutoff         1.41033e+09   1.41000e+09   201318    0.02%
Elapsed time = 9.11 sec. (7761.38 ticks, tree = 1.20 MB, solutions = 11)
  73283  3893   1.41000e+09     8   1.41033e+09   1.41000e+09   228439    0.02%
  73284  3894   1.41000e+09     8   1.41033e+09   1.41000e+09   228441    0.02%
  73285  3895   1.41000e+09     6   1.41033e+09   1.41000e+09   228443    0.02%
  73286  3896   1.41000e+09     8   1.41033e+09   1.41000e+09   228446    0.02%
  73287  3895        cutoff         1.41033e+09   1.41000e+09   228459    0.02%
  73288  3896   1.41000e+09     5   1.41033e+09   1.41000e+09   228463    0.02%
  73289  3897   1.41000e+09     5   1.41033e+09   1.41000e+09   228465    0.02%
  73290  3898   1.41000e+09     6   1.41033e+09   1.41000e+09   228470    0.02%
  73291  3897        cutoff         1.41033e+09   1.41000e+09   228477    0.02%
  73292  3896    infeasible         1.41033e+09   1.41000e+09   228477    0.02%
Elapsed time = 10.24 sec. (8716.27 ticks, tree = 1.40 MB, solutions = 11)
  82314  3590   1.41000e+09     6   1.41033e+09   1.41000e+09   259406    0.02%
  82315  3591   1.41000e+09     8   1.41033e+09   1.41000e+09   259408    0.02%
  82316  3592   1.41000e+09     6   1.41033e+09   1.41000e+09   259409    0.02%
  82317  3593   1.41000e+09     6   1.41033e+09   1.41000e+09   259410    0.02%
  82318  3594   1.41000e+09     8   1.41033e+09   1.41000e+09   259412    0.02%
  82319  3593        cutoff         1.41033e+09   1.41000e+09   259414    0.02%
  82320  3592        cutoff         1.41033e+09   1.41000e+09   259421    0.02%
  82321  3593   1.41000e+09     6   1.41033e+09   1.41000e+09   259426    0.02%
  82322  3594   1.41000e+09     6   1.41033e+09   1.41000e+09   259427    0.02%
 109441  3849        cutoff         1.41033e+09   1.41000e+09   346982    0.02%
Elapsed time = 14.74 sec. (12531.21 ticks, tree = 1.40 MB, solutions = 11)
*135180  2846      integral     0   1.41019e+09   1.41000e+09   431691    0.01%
 146968  2992    infeasible         1.41019e+09   1.41000e+09   466471    0.01%
 146969  2993   1.41000e+09     6   1.41019e+09   1.41000e+09   466472    0.01%
 146970  2994   1.41000e+09     6   1.41019e+09   1.41000e+09   466474    0.01%
 146971  2995   1.41000e+09     6   1.41019e+09   1.41000e+09   466475    0.01%
 146972  2994    infeasible         1.41019e+09   1.41000e+09   466475    0.01%
 146973  2993        cutoff         1.41019e+09   1.41000e+09   466488    0.01%
 146974  2992    infeasible         1.41019e+09   1.41000e+09   466488    0.01%
 146975  2993   1.41000e+09     5   1.41019e+09   1.41000e+09   466490    0.01%
 146976  2994   1.41000e+09     6   1.41019e+09   1.41000e+09   466492    0.01%
 146977  2993        cutoff         1.41019e+09   1.41000e+09   466498    0.01%
Elapsed time = 19.21 sec. (16347.40 ticks, tree = 1.13 MB, solutions = 12)
 182468  3526   1.41000e+09     8   1.41019e+09   1.41000e+09   571659    0.01%
 182469  3525        cutoff         1.41019e+09   1.41000e+09   571673    0.01%
 182470  3524    infeasible         1.41019e+09   1.41000e+09   571673    0.01%
 182471  3523        cutoff         1.41019e+09   1.41000e+09   571680    0.01%
 182472  3522        cutoff         1.41019e+09   1.41000e+09   571685    0.01%
 182473  3521        cutoff         1.41019e+09   1.41000e+09   571690    0.01%
 182474  3520    infeasible         1.41019e+09   1.41000e+09   571698    0.01%
 182475  3519        cutoff         1.41019e+09   1.41000e+09   571705    0.01%
 182476  3518        cutoff         1.41019e+09   1.41000e+09   571717    0.01%
 182477  3517        cutoff         1.41019e+09   1.41000e+09   571731    0.01%
Elapsed time = 23.64 sec. (20163.88 ticks, tree = 1.28 MB, solutions = 12)
 219453  2575   1.41000e+09    10   1.41019e+09   1.41000e+09   689982    0.01%
 219454  2576   1.41000e+09     9   1.41019e+09   1.41000e+09   689984    0.01%
 219455  2577   1.41000e+09     9   1.41019e+09   1.41000e+09   689985    0.01%
 219456  2578   1.41000e+09    10   1.41019e+09   1.41000e+09   689990    0.01%
 219457  2579   1.41000e+09    10   1.41019e+09   1.41000e+09   689994    0.01%
 219458  2580   1.41000e+09    10   1.41019e+09   1.41000e+09   689995    0.01%
 219459  2581   1.41000e+09     9   1.41019e+09   1.41000e+09   689997    0.01%
 219460  2582   1.41000e+09    10   1.41019e+09   1.41000e+09   689999    0.01%
 219461  2583   1.41000e+09     9   1.41019e+09   1.41000e+09   690001    0.01%
 219462  2582        cutoff         1.41019e+09   1.41000e+09   690007    0.01%
Elapsed time = 28.12 sec. (23981.02 ticks, tree = 1.02 MB, solutions = 12)
 259389  1843   1.41000e+09     6   1.41019e+09   1.41000e+09   812295    0.01%
 259390  1844   1.41000e+09     6   1.41019e+09   1.41000e+09   812296    0.01%
 259391  1845   1.41000e+09     6   1.41019e+09   1.41000e+09   812298    0.01%
 259392  1846   1.41000e+09     6   1.41019e+09   1.41000e+09   812299    0.01%
 259393  1847   1.41000e+09     6   1.41019e+09   1.41000e+09   812302    0.01%
 259394  1848   1.41000e+09     8   1.41019e+09   1.41000e+09   812305    0.01%
 259395  1849   1.41000e+09     6   1.41019e+09   1.41000e+09   812306    0.01%
 259396  1850   1.41000e+09     6   1.41019e+09   1.41000e+09   812308    0.01%
 259397  1849        cutoff         1.41019e+09   1.41000e+09   812315    0.01%
 259398  1848        cutoff         1.41019e+09   1.41000e+09   812321    0.01%
Elapsed time = 32.60 sec. (27796.52 ticks, tree = 0.81 MB, solutions = 12)
 300070  1866   1.41000e+09     6   1.41019e+09   1.41000e+09   916348    0.01%
 300071  1865        cutoff         1.41019e+09   1.41000e+09   916353    0.01%
 300072  1864        cutoff         1.41019e+09   1.41000e+09   916361    0.01%
 300073  1863    infeasible         1.41019e+09   1.41000e+09   916361    0.01%
 300074  1862    infeasible         1.41019e+09   1.41000e+09   916361    0.01%
 300075  1861        cutoff         1.41019e+09   1.41000e+09   916364    0.01%
 300076  1860    infeasible         1.41019e+09   1.41000e+09   916364    0.01%
 300077  1859    infeasible         1.41019e+09   1.41000e+09   916364    0.01%
 300078  1860   1.41000e+09    10   1.41019e+09   1.41000e+09   916368    0.01%
 300079  1861   1.41000e+09     6   1.41019e+09   1.41000e+09   916373    0.01%
Elapsed time = 37.16 sec. (31612.12 ticks, tree = 0.82 MB, solutions = 12)
 335803  1854   1.41000e+09     8   1.41019e+09   1.41000e+09  1025022    0.01%
 335804  1855   1.41000e+09     6   1.41019e+09   1.41000e+09  1025023    0.01%
 335805  1856   1.41000e+09     6   1.41019e+09   1.41000e+09  1025025    0.01%
 335806  1857   1.41000e+09     8   1.41019e+09   1.41000e+09  1025026    0.01%
 335807  1856    infeasible         1.41019e+09   1.41000e+09  1025026    0.01%
 335808  1855        cutoff         1.41019e+09   1.41000e+09  1025036    0.01%
 335809  1854    infeasible         1.41019e+09   1.41000e+09  1025036    0.01%
 335810  1853    infeasible         1.41019e+09   1.41000e+09  1025036    0.01%
 335811  1854   1.41000e+09     6   1.41019e+09   1.41000e+09  1025040    0.01%
 335812  1853        cutoff         1.41019e+09   1.41000e+09  1025043    0.01%
Elapsed time = 41.54 sec. (35427.97 ticks, tree = 0.81 MB, solutions = 12)
 367435  2149        cutoff         1.41019e+09   1.41000e+09  1135364    0.01%
 367436  2150   1.41000e+09     6   1.41019e+09   1.41000e+09  1135365    0.01%
 367437  2151   1.41000e+09     6   1.41019e+09   1.41000e+09  1135366    0.01%
 367438  2152   1.41000e+09     6   1.41019e+09   1.41000e+09  1135367    0.01%
 367439  2153   1.41000e+09     6   1.41019e+09   1.41000e+09  1135368    0.01%
 367440  2154   1.41000e+09     6   1.41019e+09   1.41000e+09  1135369    0.01%
 367441  2155   1.41000e+09     6   1.41019e+09   1.41000e+09  1135370    0.01%
 367442  2156   1.41000e+09     6   1.41019e+09   1.41000e+09  1135371    0.01%
 367443  2155        cutoff         1.41019e+09   1.41000e+09  1135374    0.01%
 367444  2154        cutoff         1.41019e+09   1.41000e+09  1135378    0.01%
Elapsed time = 45.99 sec. (39243.72 ticks, tree = 0.91 MB, solutions = 12)
 401769  5510    infeasible         1.41019e+09   1.41000e+09  1251172    0.01%
 401770  5511   1.41000e+09     8   1.41019e+09   1.41000e+09  1251175    0.01%
 401771  5512   1.41000e+09     6   1.41019e+09   1.41000e+09  1251176    0.01%
 401772  5513   1.41000e+09     6   1.41019e+09   1.41000e+09  1251177    0.01%
 401773  5514   1.41000e+09     5   1.41019e+09   1.41000e+09  1251178    0.01%
 401774  5515   1.41000e+09     6   1.41019e+09   1.41000e+09  1251179    0.01%
 401775  5515   1.41000e+09     8   1.41019e+09   1.41000e+09  1251185    0.01%
 401776  5514    infeasible         1.41019e+09   1.41000e+09  1251185    0.01%
 401777  5513    infeasible         1.41019e+09   1.41000e+09  1251185    0.01%
 401778  5512    infeasible         1.41019e+09   1.41000e+09  1251185    0.01%
Elapsed time = 50.40 sec. (43060.35 ticks, tree = 1.87 MB, solutions = 12)
 432525  7570   1.41000e+09     8   1.41019e+09   1.41000e+09  1344803    0.01%
 432526  7569        cutoff         1.41019e+09   1.41000e+09  1344807    0.01%
 432527  7568        cutoff         1.41019e+09   1.41000e+09  1344809    0.01%
 432528  7567        cutoff         1.41019e+09   1.41000e+09  1344821    0.01%
 432529  7566        cutoff         1.41019e+09   1.41000e+09  1344823    0.01%
 432530  7565        cutoff         1.41019e+09   1.41000e+09  1344830    0.01%
 432531  7564        cutoff         1.41019e+09   1.41000e+09  1344834    0.01%
 432532  7563        cutoff         1.41019e+09   1.41000e+09  1344839    0.01%
 432533  7564   1.41000e+09     6   1.41019e+09   1.41000e+09  1344840    0.01%
 432534  7565   1.41000e+09     6   1.41019e+09   1.41000e+09  1344841    0.01%
Elapsed time = 54.88 sec. (46876.82 ticks, tree = 2.51 MB, solutions = 12)
 463985 10664   1.41000e+09     6   1.41019e+09   1.41000e+09  1444313    0.01%
 463986 10665   1.41000e+09     6   1.41019e+09   1.41000e+09  1444317    0.01%
 463987 10666   1.41000e+09     5   1.41019e+09   1.41000e+09  1444318    0.01%
 463988 10667   1.41000e+09     6   1.41019e+09   1.41000e+09  1444322    0.01%
 463989 10668   1.41000e+09     6   1.41019e+09   1.41000e+09  1444323    0.01%
 463990 10669   1.41000e+09     6   1.41019e+09   1.41000e+09  1444324    0.01%
 463991 10670   1.41000e+09     6   1.41019e+09   1.41000e+09  1444325    0.01%
 463992 10671   1.41000e+09     6   1.41019e+09   1.41000e+09  1444326    0.01%
 463993 10670        cutoff         1.41019e+09   1.41000e+09  1444340    0.01%
 463994 10671   1.41000e+09     6   1.41019e+09   1.41000e+09  1444341    0.01%
Elapsed time = 59.30 sec. (50692.32 ticks, tree = 3.65 MB, solutions = 12)
 494141 13156        cutoff         1.41019e+09   1.41000e+09  1540833    0.01%
 494142 13155        cutoff         1.41019e+09   1.41000e+09  1540843    0.01%
 494143 13154        cutoff         1.41019e+09   1.41000e+09  1540847    0.01%
 494144 13153        cutoff         1.41019e+09   1.41000e+09  1540851    0.01%
 494145 13152    infeasible         1.41019e+09   1.41000e+09  1540855    0.01%
 494146 13151        cutoff         1.41019e+09   1.41000e+09  1540867    0.01%
 494147 13150        cutoff         1.41019e+09   1.41000e+09  1540873    0.01%
 494148 13149        cutoff         1.41019e+09   1.41000e+09  1540876    0.01%
 494149 13150   1.41000e+09     6   1.41019e+09   1.41000e+09  1540877    0.01%
 494150 13151   1.41007e+09    10   1.41019e+09   1.41000e+09  1540880    0.01%
Elapsed time = 63.73 sec. (54508.67 ticks, tree = 4.39 MB, solutions = 12)
 524328 15333   1.41004e+09     5   1.41019e+09   1.41000e+09  1636668    0.01%
 524329 15332    infeasible         1.41019e+09   1.41000e+09  1636668    0.01%
 524330 15331    infeasible         1.41019e+09   1.41000e+09  1636668    0.01%
 524331 15332   1.41000e+09     6   1.41019e+09   1.41000e+09  1636671    0.01%
 524332 15333   1.41004e+09     4   1.41019e+09   1.41000e+09  1636674    0.01%
 524333 15334   1.41004e+09     4   1.41019e+09   1.41000e+09  1636677    0.01%
 524334 15333    infeasible         1.41019e+09   1.41000e+09  1636678    0.01%
 524335 15332    infeasible         1.41019e+09   1.41000e+09  1636678    0.01%
 524336 15331        cutoff         1.41019e+09   1.41000e+09  1636689    0.01%
 524337 15332   1.41004e+09     4   1.41019e+09   1.41000e+09  1636696    0.01%
Elapsed time = 68.55 sec. (58324.84 ticks, tree = 5.05 MB, solutions = 12)
*539111 15879      integral     0   1.41011e+09   1.41000e+09  1682305    0.01%

Cover cuts applied:  1
Mixed integer rounding cuts applied:  3
Gomory fractional cuts applied:  2

Root node processing (before b&c):
  Real time             =    0.01 sec. (6.34 ticks)
Sequential b&c:
  Real time             =   70.66 sec. (60224.54 ticks)
                          ------------
Total (root+branch&cut) =   70.68 sec. (60230.89 ticks)

Solution pool: 13 solutions saved.

MIP - Integer optimal, tolerance (0.0001/1e-06):  Objective =  1.4101062380e+09
Current MIP best bound =  1.4100007540e+09 (gap = 105484, 0.01%)
Solution time =   70.68 sec.  Iterations = 1682305  Nodes = 539112 (15879)
Deterministic time = 60230.89 ticks  (852.21 ticks/sec)


Incumbent solution written to file '/tmp/tmpf9iIL6.cplex.sol'.
